c nIsolatedPIs 0
c maxPI 11
p cnf 460 1348
c gate 12 -8 10 0
-8 -12 0
10 -12 0
8 -10 12 0
c gate 13 7 -10 0
7 -13 0
-10 -13 0
-7 10 13 0
c gate 14 -7 10 0
-7 -14 0
10 -14 0
7 -10 14 0
c gate 15 -13 -14 0
-13 -15 0
-14 -15 0
13 14 15 0
c gate 16 8 9 0
8 -16 0
9 -16 0
-8 -9 16 0
c gate 17 -15 16 0
-15 -17 0
16 -17 0
15 -16 17 0
c gate 18 -12 -17 0
-12 -18 0
-17 -18 0
12 17 18 0
c gate 19 -3 -18 0
-3 -19 0
-18 -19 0
3 18 19 0
c gate 20 -9 10 0
-9 -20 0
10 -20 0
9 -10 20 0
c gate 21 -19 -20 0
-19 -21 0
-20 -21 0
19 20 21 0
c gate 22 -2 -21 0
-2 -22 0
-21 -22 0
2 21 22 0
c gate 23 -2 10 0
-2 -23 0
10 -23 0
2 -10 23 0
c gate 24 9 10 0
9 -24 0
10 -24 0
-9 -10 24 0
c gate 25 8 24 0
8 -25 0
24 -25 0
-8 -24 25 0
c gate 26 -3 -25 0
-3 -26 0
-25 -26 0
3 25 26 0
c gate 27 -23 -26 0
-23 -27 0
-26 -27 0
23 26 27 0
c gate 28 -22 -27 0
-22 -28 0
-27 -28 0
22 27 28 0
c gate 29 4 5 0
4 -29 0
5 -29 0
-4 -5 29 0
c gate 30 8 -9 0
8 -30 0
-9 -30 0
-8 9 30 0
c gate 31 -29 30 0
-29 -31 0
30 -31 0
29 -30 31 0
c gate 32 -7 -8 0
-7 -32 0
-8 -32 0
7 8 32 0
c gate 33 5 7 0
5 -33 0
7 -33 0
-5 -7 33 0
c gate 34 -32 -33 0
-32 -34 0
-33 -34 0
32 33 34 0
c gate 35 9 -34 0
9 -35 0
-34 -35 0
-9 34 35 0
c gate 36 -31 -35 0
-31 -36 0
-35 -36 0
31 35 36 0
c gate 37 4 7 0
4 -37 0
7 -37 0
-4 -7 37 0
c gate 38 1 37 0
1 -38 0
37 -38 0
-1 -37 38 0
c gate 39 7 -38 0
7 -39 0
-38 -39 0
-7 38 39 0
c gate 40 5 -8 0
5 -40 0
-8 -40 0
-5 8 40 0
c gate 41 -39 40 0
-39 -41 0
40 -41 0
39 -40 41 0
c gate 42 36 -41 0
36 -42 0
-41 -42 0
-36 41 42 0
c gate 43 -2 -7 0
-2 -43 0
-7 -43 0
2 7 43 0
c gate 44 3 -43 0
3 -44 0
-43 -44 0
-3 43 44 0
c gate 45 -42 -44 0
-42 -45 0
-44 -45 0
42 44 45 0
c gate 46 -2 -3 0
-2 -46 0
-3 -46 0
2 3 46 0
c gate 47 -11 46 0
-11 -47 0
46 -47 0
11 -46 47 0
c gate 48 28 -42 0
28 -48 0
-42 -48 0
-28 42 48 0
c gate 49 47 -48 0
47 -49 0
-48 -49 0
-47 48 49 0
c gate 50 -3 -28 0
-3 -50 0
-28 -50 0
3 28 50 0
c gate 51 3 28 0
3 -51 0
28 -51 0
-3 -28 51 0
c gate 52 -50 -51 0
-50 -52 0
-51 -52 0
50 51 52 0
c gate 53 2 11 0
2 -53 0
11 -53 0
-2 -11 53 0
c gate 54 -2 -11 0
-2 -54 0
-11 -54 0
2 11 54 0
c gate 55 -53 -54 0
-53 -55 0
-54 -55 0
53 54 55 0
c gate 56 -52 55 0
-52 -56 0
55 -56 0
52 -55 56 0
c gate 57 -11 28 0
-11 -57 0
28 -57 0
11 -28 57 0
c gate 58 2 -50 0
2 -58 0
-50 -58 0
-2 50 58 0
c gate 59 -57 58 0
-57 -59 0
58 -59 0
57 -58 59 0
c gate 60 -56 -59 0
-56 -60 0
-59 -60 0
56 59 60 0
c gate 61 -49 60 0
-49 -61 0
60 -61 0
49 -60 61 0
c gate 62 -11 -61 0
-11 -62 0
-61 -62 0
11 61 62 0
c gate 63 -45 -62 0
-45 -63 0
-62 -63 0
45 62 63 0
c gate 64 -10 -11 0
-10 -64 0
-11 -64 0
10 11 64 0
c gate 65 46 64 0
46 -65 0
64 -65 0
-46 -64 65 0
c gate 66 -61 -65 0
-61 -66 0
-65 -66 0
61 65 66 0
c gate 67 -11 -42 0
-11 -67 0
-42 -67 0
11 42 67 0
c gate 68 11 42 0
11 -68 0
42 -68 0
-11 -42 68 0
c gate 69 -67 -68 0
-67 -69 0
-68 -69 0
67 68 69 0
c gate 70 -9 -11 0
-9 -70 0
-11 -70 0
9 11 70 0
c gate 71 -8 -70 0
-8 -71 0
-70 -71 0
8 70 71 0
c gate 72 -69 71 0
-69 -72 0
71 -72 0
69 -71 72 0
c gate 73 -8 -9 0
-8 -73 0
-9 -73 0
8 9 73 0
c gate 74 -10 -73 0
-10 -74 0
-73 -74 0
10 73 74 0
c gate 75 10 11 0
10 -75 0
11 -75 0
-10 -11 75 0
c gate 76 -64 -75 0
-64 -76 0
-75 -76 0
64 75 76 0
c gate 77 -74 -76 0
-74 -77 0
-76 -77 0
74 76 77 0
c gate 78 -9 11 0
-9 -78 0
11 -78 0
9 -11 78 0
c gate 79 -24 -78 0
-24 -79 0
-78 -79 0
24 78 79 0
c gate 80 -42 -79 0
-42 -80 0
-79 -80 0
42 79 80 0
c gate 81 42 64 0
42 -81 0
64 -81 0
-42 -64 81 0
c gate 82 8 -81 0
8 -82 0
-81 -82 0
-8 81 82 0
c gate 83 -80 82 0
-80 -83 0
82 -83 0
80 -82 83 0
c gate 84 -77 -83 0
-77 -84 0
-83 -84 0
77 83 84 0
c gate 85 -72 84 0
-72 -85 0
84 -85 0
72 -84 85 0
c gate 86 -42 85 0
-42 -86 0
85 -86 0
42 -85 86 0
c gate 87 66 86 0
66 -87 0
86 -87 0
-66 -86 87 0
c gate 88 42 -85 0
42 -88 0
-85 -88 0
-42 85 88 0
c gate 89 -86 -88 0
-86 -89 0
-88 -89 0
86 88 89 0
c gate 90 -66 89 0
-66 -90 0
89 -90 0
66 -89 90 0
c gate 91 46 -90 0
46 -91 0
-90 -91 0
-46 90 91 0
c gate 92 -87 91 0
-87 -92 0
91 -92 0
87 -91 92 0
c gate 93 -61 92 0
-61 -93 0
92 -93 0
61 -92 93 0
c gate 94 63 -93 0
63 -94 0
-93 -94 0
-63 93 94 0
c gate 95 -9 -94 0
-9 -95 0
-94 -95 0
9 94 95 0
c gate 96 63 95 0
63 -96 0
95 -96 0
-63 -95 96 0
c gate 97 2 -3 0
2 -97 0
-3 -97 0
-2 3 97 0
c gate 98 9 11 0
9 -98 0
11 -98 0
-9 -11 98 0
c gate 99 61 98 0
61 -99 0
98 -99 0
-61 -98 99 0
c gate 100 -97 -99 0
-97 -100 0
-99 -100 0
97 99 100 0
c gate 101 -95 100 0
-95 -101 0
100 -101 0
95 -100 101 0
c gate 102 -92 -101 0
-92 -102 0
-101 -102 0
92 101 102 0
c gate 103 -96 -102 0
-96 -103 0
-102 -103 0
96 102 103 0
c gate 104 28 -103 0
28 -104 0
-103 -104 0
-28 103 104 0
c gate 105 -28 92 0
-28 -105 0
92 -105 0
28 -92 105 0
c gate 106 -93 -97 0
-93 -106 0
-97 -106 0
93 97 106 0
c gate 107 9 -106 0
9 -107 0
-106 -107 0
-9 106 107 0
c gate 108 -105 -107 0
-105 -108 0
-107 -108 0
105 107 108 0
c gate 109 -11 -108 0
-11 -109 0
-108 -109 0
11 108 109 0
c gate 110 -104 -109 0
-104 -110 0
-109 -110 0
104 109 110 0
c gate 111 3 9 0
3 -111 0
9 -111 0
-3 -9 111 0
c gate 112 -7 -42 0
-7 -112 0
-42 -112 0
7 42 112 0
c gate 113 7 42 0
7 -113 0
42 -113 0
-7 -42 113 0
c gate 114 -112 -113 0
-112 -114 0
-113 -114 0
112 113 114 0
c gate 115 -6 -15 0
-6 -115 0
-15 -115 0
6 15 115 0
c gate 116 114 115 0
114 -116 0
115 -116 0
-114 -115 116 0
c gate 117 6 7 0
6 -117 0
7 -117 0
-6 -7 117 0
c gate 118 10 117 0
10 -118 0
117 -118 0
-10 -117 118 0
c gate 119 -42 118 0
-42 -119 0
118 -119 0
42 -118 119 0
c gate 120 -116 -119 0
-116 -120 0
-119 -120 0
116 119 120 0
c gate 121 8 -120 0
8 -121 0
-120 -121 0
-8 120 121 0
c gate 122 8 -36 0
8 -122 0
-36 -122 0
-8 36 122 0
c gate 123 -8 42 0
-8 -123 0
42 -123 0
8 -42 123 0
c gate 124 6 -8 0
6 -124 0
-8 -124 0
-6 8 124 0
c gate 125 -6 8 0
-6 -125 0
8 -125 0
6 -8 125 0
c gate 126 -124 -125 0
-124 -126 0
-125 -126 0
124 125 126 0
c gate 127 15 -126 0
15 -127 0
-126 -127 0
-15 126 127 0
c gate 128 -123 127 0
-123 -128 0
127 -128 0
123 -127 128 0
c gate 129 -6 -7 0
-6 -129 0
-7 -129 0
6 7 129 0
c gate 130 -124 -129 0
-124 -130 0
-129 -130 0
124 129 130 0
c gate 131 -113 130 0
-113 -131 0
130 -131 0
113 -130 131 0
c gate 132 -128 -131 0
-128 -132 0
-131 -132 0
128 131 132 0
c gate 133 -122 -132 0
-122 -133 0
-132 -133 0
122 132 133 0
c gate 134 -121 -133 0
-121 -134 0
-133 -134 0
121 133 134 0
c gate 135 9 -134 0
9 -135 0
-134 -135 0
-9 134 135 0
c gate 136 8 -10 0
8 -136 0
-10 -136 0
-8 10 136 0
c gate 137 -12 -136 0
-12 -137 0
-136 -137 0
12 136 137 0
c gate 138 -9 -125 0
-9 -138 0
-125 -138 0
9 125 138 0
c gate 139 -137 -138 0
-137 -139 0
-138 -139 0
137 138 139 0
c gate 140 -114 139 0
-114 -140 0
139 -140 0
114 -139 140 0
c gate 141 7 137 0
7 -141 0
137 -141 0
-7 -137 141 0
c gate 142 -7 136 0
-7 -142 0
136 -142 0
7 -136 142 0
c gate 143 -141 -142 0
-141 -143 0
-142 -143 0
141 142 143 0
c gate 144 6 -9 0
6 -144 0
-9 -144 0
-6 9 144 0
c gate 145 -143 144 0
-143 -145 0
144 -145 0
143 -144 145 0
c gate 146 -8 129 0
-8 -146 0
129 -146 0
8 -129 146 0
c gate 147 74 146 0
74 -147 0
146 -147 0
-74 -146 147 0
c gate 148 -145 -147 0
-145 -148 0
-147 -148 0
145 147 148 0
c gate 149 -140 148 0
-140 -149 0
148 -149 0
140 -148 149 0
c gate 150 -135 149 0
-135 -150 0
149 -150 0
135 -149 150 0
c gate 151 3 -150 0
3 -151 0
-150 -151 0
-3 150 151 0
c gate 152 9 150 0
9 -152 0
150 -152 0
-9 -150 152 0
c gate 153 -7 152 0
-7 -153 0
152 -153 0
7 -152 153 0
c gate 154 -151 -153 0
-151 -154 0
-153 -154 0
151 153 154 0
c gate 155 2 -154 0
2 -155 0
-154 -155 0
-2 154 155 0
c gate 156 42 -150 0
42 -156 0
-150 -156 0
-42 150 156 0
c gate 157 -35 -156 0
-35 -157 0
-156 -157 0
35 156 157 0
c gate 158 -2 -157 0
-2 -158 0
-157 -158 0
2 157 158 0
c gate 159 46 150 0
46 -159 0
150 -159 0
-46 -150 159 0
c gate 160 -151 -159 0
-151 -160 0
-159 -160 0
151 159 160 0
c gate 161 7 -160 0
7 -161 0
-160 -161 0
-7 160 161 0
c gate 162 -158 -161 0
-158 -162 0
-161 -162 0
158 161 162 0
c gate 163 -155 162 0
-155 -163 0
162 -163 0
155 -162 163 0
c gate 164 -111 163 0
-111 -164 0
163 -164 0
111 -163 164 0
c gate 165 -28 -164 0
-28 -165 0
-164 -165 0
28 164 165 0
c gate 166 75 -150 0
75 -166 0
-150 -166 0
-75 150 166 0
c gate 167 -42 150 0
-42 -167 0
150 -167 0
42 -150 167 0
c gate 168 -156 -167 0
-156 -168 0
-167 -168 0
156 167 168 0
c gate 169 -10 150 0
-10 -169 0
150 -169 0
10 -150 169 0
c gate 170 -11 -169 0
-11 -170 0
-169 -170 0
11 169 170 0
c gate 171 168 170 0
168 -171 0
170 -171 0
-168 -170 171 0
c gate 172 -166 -171 0
-166 -172 0
-171 -172 0
166 171 172 0
c gate 173 9 -172 0
9 -173 0
-172 -173 0
-9 172 173 0
c gate 174 20 69 0
20 -174 0
69 -174 0
-20 -69 174 0
c gate 175 150 174 0
150 -175 0
174 -175 0
-150 -174 175 0
c gate 176 -10 68 0
-10 -176 0
68 -176 0
10 -68 176 0
c gate 177 -8 -176 0
-8 -177 0
-176 -177 0
8 176 177 0
c gate 178 -175 177 0
-175 -178 0
177 -178 0
175 -177 178 0
c gate 179 -173 178 0
-173 -179 0
178 -179 0
173 -178 179 0
c gate 180 10 69 0
10 -180 0
69 -180 0
-10 -69 180 0
c gate 181 -64 -180 0
-64 -181 0
-180 -181 0
64 180 181 0
c gate 182 150 -181 0
150 -182 0
-181 -182 0
-150 181 182 0
c gate 183 -10 -69 0
-10 -183 0
-69 -183 0
10 69 183 0
c gate 184 -9 -183 0
-9 -184 0
-183 -184 0
9 183 184 0
c gate 185 -166 184 0
-166 -185 0
184 -185 0
166 -184 185 0
c gate 186 -182 185 0
-182 -186 0
185 -186 0
182 -185 186 0
c gate 187 64 168 0
64 -187 0
168 -187 0
-64 -168 187 0
c gate 188 -168 180 0
-168 -188 0
180 -188 0
168 -180 188 0
c gate 189 9 -188 0
9 -189 0
-188 -189 0
-9 188 189 0
c gate 190 -187 189 0
-187 -190 0
189 -190 0
187 -189 190 0
c gate 191 -186 -190 0
-186 -191 0
-190 -191 0
186 190 191 0
c gate 192 10 150 0
10 -192 0
150 -192 0
-10 -150 192 0
c gate 193 98 -192 0
98 -193 0
-192 -193 0
-98 192 193 0
c gate 194 8 -193 0
8 -194 0
-193 -194 0
-8 193 194 0
c gate 195 -191 194 0
-191 -195 0
194 -195 0
191 -194 195 0
c gate 196 -179 -195 0
-179 -196 0
-195 -196 0
179 195 196 0
c gate 197 -9 -150 0
-9 -197 0
-150 -197 0
9 150 197 0
c gate 198 -152 -197 0
-152 -198 0
-197 -198 0
152 197 198 0
c gate 199 10 -11 0
10 -199 0
-11 -199 0
-10 11 199 0
c gate 200 8 -199 0
8 -200 0
-199 -200 0
-8 199 200 0
c gate 201 -8 76 0
-8 -201 0
76 -201 0
8 -76 201 0
c gate 202 -200 -201 0
-200 -202 0
-201 -202 0
200 201 202 0
c gate 203 -198 202 0
-198 -203 0
202 -203 0
198 -202 203 0
c gate 204 -196 -203 0
-196 -204 0
-203 -204 0
196 203 204 0
c gate 205 -42 204 0
-42 -205 0
204 -205 0
42 -204 205 0
c gate 206 50 54 0
50 -206 0
54 -206 0
-50 -54 206 0
c gate 207 169 206 0
169 -207 0
206 -207 0
-169 -206 207 0
c gate 208 65 -207 0
65 -208 0
-207 -208 0
-65 207 208 0
c gate 209 -150 206 0
-150 -209 0
206 -209 0
150 -206 209 0
c gate 210 60 -209 0
60 -210 0
-209 -210 0
-60 209 210 0
c gate 211 46 57 0
46 -211 0
57 -211 0
-46 -57 211 0
c gate 212 -168 211 0
-168 -212 0
211 -212 0
168 -211 212 0
c gate 213 210 -212 0
210 -213 0
-212 -213 0
-210 212 213 0
c gate 214 208 213 0
208 -214 0
213 -214 0
-208 -213 214 0
c gate 215 -208 -213 0
-208 -215 0
-213 -215 0
208 213 215 0
c gate 216 -214 -215 0
-214 -216 0
-215 -216 0
214 215 216 0
c gate 217 42 -204 0
42 -217 0
-204 -217 0
-42 204 217 0
c gate 218 216 -217 0
216 -218 0
-217 -218 0
-216 217 218 0
c gate 219 -205 218 0
-205 -219 0
218 -219 0
205 -218 219 0
c gate 220 205 -216 0
205 -220 0
-216 -220 0
-205 216 220 0
c gate 221 -204 214 0
-204 -221 0
214 -221 0
204 -214 221 0
c gate 222 46 -221 0
46 -222 0
-221 -222 0
-46 221 222 0
c gate 223 -220 222 0
-220 -223 0
222 -223 0
220 -222 223 0
c gate 224 -219 223 0
-219 -224 0
223 -224 0
219 -223 224 0
c gate 225 165 -224 0
165 -225 0
-224 -225 0
-165 224 225 0
c gate 226 28 164 0
28 -226 0
164 -226 0
-28 -164 226 0
c gate 227 224 226 0
224 -227 0
226 -227 0
-224 -226 227 0
c gate 228 -225 -227 0
-225 -228 0
-227 -228 0
225 227 228 0
c gate 229 9 -228 0
9 -229 0
-228 -229 0
-9 228 229 0
c gate 230 -9 -165 0
-9 -230 0
-165 -230 0
9 165 230 0
c gate 231 -226 230 0
-226 -231 0
230 -231 0
226 -230 231 0
c gate 232 -224 231 0
-224 -232 0
231 -232 0
224 -231 232 0
c gate 233 -229 -232 0
-229 -233 0
-232 -233 0
229 232 233 0
c gate 234 11 -233 0
11 -234 0
-233 -234 0
-11 233 234 0
c gate 235 -11 213 0
-11 -235 0
213 -235 0
11 -213 235 0
c gate 236 224 -235 0
224 -236 0
-235 -236 0
-224 235 236 0
c gate 237 11 -210 0
11 -237 0
-210 -237 0
-11 210 237 0
c gate 238 -224 -237 0
-224 -238 0
-237 -238 0
224 237 238 0
c gate 239 9 -238 0
9 -239 0
-238 -239 0
-9 238 239 0
c gate 240 -236 239 0
-236 -240 0
239 -240 0
236 -239 240 0
c gate 241 -11 -224 0
-11 -241 0
-224 -241 0
11 224 241 0
c gate 242 11 224 0
11 -242 0
224 -242 0
-11 -224 242 0
c gate 243 -241 -242 0
-241 -243 0
-242 -243 0
241 242 243 0
c gate 244 -9 213 0
-9 -244 0
213 -244 0
9 -213 244 0
c gate 245 -243 244 0
-243 -245 0
244 -245 0
243 -244 245 0
c gate 246 -240 -245 0
-240 -246 0
-245 -246 0
240 245 246 0
c gate 247 28 -164 0
28 -247 0
-164 -247 0
-28 164 247 0
c gate 248 -246 247 0
-246 -248 0
247 -248 0
246 -247 248 0
c gate 249 -235 -237 0
-235 -249 0
-237 -249 0
235 237 249 0
c gate 250 28 249 0
28 -250 0
249 -250 0
-28 -249 250 0
c gate 251 11 -28 0
11 -251 0
-28 -251 0
-11 28 251 0
c gate 252 -57 -251 0
-57 -252 0
-251 -252 0
57 251 252 0
c gate 253 -70 -98 0
-70 -253 0
-98 -253 0
70 98 253 0
c gate 254 252 253 0
252 -254 0
253 -254 0
-252 -253 254 0
c gate 255 235 254 0
235 -255 0
254 -255 0
-235 -254 255 0
c gate 256 -250 -255 0
-250 -256 0
-255 -256 0
250 255 256 0
c gate 257 -224 256 0
-224 -257 0
256 -257 0
224 -256 257 0
c gate 258 249 254 0
249 -258 0
254 -258 0
-249 -254 258 0
c gate 259 224 -258 0
224 -259 0
-258 -259 0
-224 258 259 0
c gate 260 164 -259 0
164 -260 0
-259 -260 0
-164 259 260 0
c gate 261 -257 260 0
-257 -261 0
260 -261 0
257 -260 261 0
c gate 262 9 -163 0
9 -262 0
-163 -262 0
-9 163 262 0
c gate 263 -3 9 0
-3 -263 0
9 -263 0
3 -9 263 0
c gate 264 163 -263 0
163 -264 0
-263 -264 0
-163 263 264 0
c gate 265 -262 -264 0
-262 -265 0
-264 -265 0
262 264 265 0
c gate 266 -226 -265 0
-226 -266 0
-265 -266 0
226 265 266 0
c gate 267 -243 266 0
-243 -267 0
266 -267 0
243 -266 267 0
c gate 268 70 225 0
70 -268 0
225 -268 0
-70 -225 268 0
c gate 269 -252 265 0
-252 -269 0
265 -269 0
252 -265 269 0
c gate 270 -241 269 0
-241 -270 0
269 -270 0
241 -269 270 0
c gate 271 -268 -270 0
-268 -271 0
-270 -271 0
268 270 271 0
c gate 272 -267 271 0
-267 -272 0
271 -272 0
267 -271 272 0
c gate 273 -261 272 0
-261 -273 0
272 -273 0
261 -272 273 0
c gate 274 -248 273 0
-248 -274 0
273 -274 0
248 -273 274 0
c gate 275 -234 274 0
-234 -275 0
274 -275 0
234 -274 275 0
c gate 276 110 275 0
110 -276 0
275 -276 0
-110 -275 276 0
c gate 277 -110 -275 0
-110 -277 0
-275 -277 0
110 275 277 0
c gate 278 -92 224 0
-92 -278 0
224 -278 0
92 -224 278 0
c gate 279 92 -224 0
92 -279 0
-224 -279 0
-92 224 279 0
c gate 280 2 -10 0
2 -280 0
-10 -280 0
-2 10 280 0
c gate 281 -23 -280 0
-23 -281 0
-280 -281 0
23 280 281 0
c gate 282 7 111 0
7 -282 0
111 -282 0
-7 -111 282 0
c gate 283 6 46 0
6 -283 0
46 -283 0
-6 -46 283 0
c gate 284 -46 -263 0
-46 -284 0
-263 -284 0
46 263 284 0
c gate 285 -283 -284 0
-283 -285 0
-284 -285 0
283 284 285 0
c gate 286 -282 -285 0
-282 -286 0
-285 -286 0
282 285 286 0
c gate 287 8 -286 0
8 -287 0
-286 -287 0
-8 286 287 0
c gate 288 7 8 0
7 -288 0
8 -288 0
-7 -8 288 0
c gate 289 -32 -288 0
-32 -289 0
-288 -289 0
32 288 289 0
c gate 290 -111 -283 0
-111 -290 0
-283 -290 0
111 283 290 0
c gate 291 289 -290 0
289 -291 0
-290 -291 0
-289 290 291 0
c gate 292 -287 -291 0
-287 -292 0
-291 -292 0
287 291 292 0
c gate 293 -111 292 0
-111 -293 0
292 -293 0
111 -292 293 0
c gate 294 -281 -293 0
-281 -294 0
-293 -294 0
281 293 294 0
c gate 295 4 -125 0
4 -295 0
-125 -295 0
-4 125 295 0
c gate 296 -4 -6 0
-4 -296 0
-6 -296 0
4 6 296 0
c gate 297 30 -296 0
30 -297 0
-296 -297 0
-30 296 297 0
c gate 298 -295 297 0
-295 -298 0
297 -298 0
295 -297 298 0
c gate 299 1 73 0
1 -299 0
73 -299 0
-1 -73 299 0
c gate 300 9 -126 0
9 -300 0
-126 -300 0
-9 126 300 0
c gate 301 -299 -300 0
-299 -301 0
-300 -301 0
299 300 301 0
c gate 302 -298 301 0
-298 -302 0
301 -302 0
298 -301 302 0
c gate 303 5 -302 0
5 -303 0
-302 -303 0
-5 302 303 0
c gate 304 -4 -5 0
-4 -304 0
-5 -304 0
4 5 304 0
c gate 305 -29 -304 0
-29 -305 0
-304 -305 0
29 304 305 0
c gate 306 -1 73 0
-1 -306 0
73 -306 0
1 -73 306 0
c gate 307 305 306 0
305 -307 0
306 -307 0
-305 -306 307 0
c gate 308 -6 -9 0
-6 -308 0
-9 -308 0
6 9 308 0
c gate 309 -5 8 0
-5 -309 0
8 -309 0
5 -8 309 0
c gate 310 -308 309 0
-308 -310 0
309 -310 0
308 -309 310 0
c gate 311 -307 -310 0
-307 -311 0
-310 -311 0
307 310 311 0
c gate 312 -303 311 0
-303 -312 0
311 -312 0
303 -311 312 0
c gate 313 7 -312 0
7 -313 0
-312 -313 0
-7 312 313 0
c gate 314 -4 -313 0
-4 -314 0
-313 -314 0
4 313 314 0
c gate 315 37 -312 0
37 -315 0
-312 -315 0
-37 312 315 0
c gate 316 -8 70 0
-8 -316 0
70 -316 0
8 -70 316 0
c gate 317 -315 316 0
-315 -317 0
316 -317 0
315 -316 317 0
c gate 318 -314 317 0
-314 -318 0
317 -318 0
314 -317 318 0
c gate 319 -11 -312 0
-11 -319 0
-312 -319 0
11 312 319 0
c gate 320 253 289 0
253 -320 0
289 -320 0
-253 -289 320 0
c gate 321 -73 -320 0
-73 -321 0
-320 -321 0
73 320 321 0
c gate 322 319 321 0
319 -322 0
321 -322 0
-319 -321 322 0
c gate 323 -319 320 0
-319 -323 0
320 -323 0
319 -320 323 0
c gate 324 11 -289 0
11 -324 0
-289 -324 0
-11 289 324 0
c gate 325 -16 -73 0
-16 -325 0
-73 -325 0
16 73 325 0
c gate 326 324 -325 0
324 -326 0
-325 -326 0
-324 325 326 0
c gate 327 -323 -326 0
-323 -327 0
-326 -327 0
323 326 327 0
c gate 328 -322 327 0
-322 -328 0
327 -328 0
322 -327 328 0
c gate 329 -318 328 0
-318 -329 0
328 -329 0
318 -328 329 0
c gate 330 281 293 0
281 -330 0
293 -330 0
-281 -293 330 0
c gate 331 -329 330 0
-329 -331 0
330 -331 0
329 -330 331 0
c gate 332 -294 -331 0
-294 -332 0
-331 -332 0
294 331 332 0
c gate 333 -11 -332 0
-11 -333 0
-332 -333 0
11 332 333 0
c gate 334 -3 -329 0
-3 -334 0
-329 -334 0
3 329 334 0
c gate 335 -3 -330 0
-3 -335 0
-330 -335 0
3 330 335 0
c gate 336 -294 -335 0
-294 -336 0
-335 -336 0
294 335 336 0
c gate 337 -334 336 0
-334 -337 0
336 -337 0
334 -336 337 0
c gate 338 -333 -337 0
-333 -338 0
-337 -338 0
333 337 338 0
c gate 339 -11 -334 0
-11 -339 0
-334 -339 0
11 334 339 0
c gate 340 281 -339 0
281 -340 0
-339 -340 0
-281 339 340 0
c gate 341 -338 340 0
-338 -341 0
340 -341 0
338 -340 341 0
c gate 342 2 -16 0
2 -342 0
-16 -342 0
-2 16 342 0
c gate 343 -111 342 0
-111 -343 0
342 -343 0
111 -342 343 0
c gate 344 75 343 0
75 -344 0
343 -344 0
-75 -343 344 0
c gate 345 -2 64 0
-2 -345 0
64 -345 0
2 -64 345 0
c gate 346 -293 345 0
-293 -346 0
345 -346 0
293 -345 346 0
c gate 347 -344 -346 0
-344 -347 0
-346 -347 0
344 346 347 0
c gate 348 -329 -347 0
-329 -348 0
-347 -348 0
329 347 348 0
c gate 349 -10 293 0
-10 -349 0
293 -349 0
10 -293 349 0
c gate 350 -11 -343 0
-11 -350 0
-343 -350 0
11 343 350 0
c gate 351 -53 -350 0
-53 -351 0
-350 -351 0
53 350 351 0
c gate 352 -349 351 0
-349 -352 0
351 -352 0
349 -351 352 0
c gate 353 329 352 0
329 -353 0
352 -353 0
-329 -352 353 0
c gate 354 -348 -353 0
-348 -354 0
-353 -354 0
348 353 354 0
c gate 355 -3 -354 0
-3 -355 0
-354 -355 0
3 354 355 0
c gate 356 -3 -292 0
-3 -356 0
-292 -356 0
3 292 356 0
c gate 357 -78 -356 0
-78 -357 0
-356 -357 0
78 356 357 0
c gate 358 -3 11 0
-3 -358 0
11 -358 0
3 -11 358 0
c gate 359 -281 -358 0
-281 -359 0
-358 -359 0
281 358 359 0
c gate 360 -357 359 0
-357 -360 0
359 -360 0
357 -359 360 0
c gate 361 -2 11 0
-2 -361 0
11 -361 0
2 -11 361 0
c gate 362 -3 10 0
-3 -362 0
10 -362 0
3 -10 362 0
c gate 363 -361 -362 0
-361 -363 0
-362 -363 0
361 362 363 0
c gate 364 76 363 0
76 -364 0
363 -364 0
-76 -363 364 0
c gate 365 -293 364 0
-293 -365 0
364 -365 0
293 -364 365 0
c gate 366 -360 -365 0
-360 -366 0
-365 -366 0
360 365 366 0
c gate 367 -355 366 0
-355 -367 0
366 -367 0
355 -366 367 0
c gate 368 -341 367 0
-341 -368 0
367 -368 0
341 -367 368 0
c gate 369 -333 354 0
-333 -369 0
354 -369 0
333 -354 369 0
c gate 370 -3 -369 0
-3 -370 0
-369 -370 0
3 369 370 0
c gate 371 11 337 0
11 -371 0
337 -371 0
-11 -337 371 0
c gate 372 -365 -371 0
-365 -372 0
-371 -372 0
365 371 372 0
c gate 373 -370 372 0
-370 -373 0
372 -373 0
370 -372 373 0
c gate 374 -368 373 0
-368 -374 0
373 -374 0
368 -373 374 0
c gate 375 368 -373 0
368 -375 0
-373 -375 0
-368 373 375 0
c gate 376 47 150 0
47 -376 0
150 -376 0
-47 -150 376 0
c gate 377 5 -6 0
5 -377 0
-6 -377 0
-5 6 377 0
c gate 378 -5 6 0
-5 -378 0
6 -378 0
5 -6 378 0
c gate 379 -377 -378 0
-377 -379 0
-378 -379 0
377 378 379 0
c gate 380 -10 46 0
-10 -380 0
46 -380 0
10 -46 380 0
c gate 381 -379 380 0
-379 -381 0
380 -381 0
379 -380 381 0
c gate 382 -75 -381 0
-75 -382 0
-381 -382 0
75 381 382 0
c gate 383 363 -382 0
363 -383 0
-382 -383 0
-363 382 383 0
c gate 384 10 -117 0
10 -384 0
-117 -384 0
-10 117 384 0
c gate 385 -129 384 0
-129 -385 0
384 -385 0
129 -384 385 0
c gate 386 8 -305 0
8 -386 0
-305 -386 0
-8 305 386 0
c gate 387 -9 -10 0
-9 -387 0
-10 -387 0
9 10 387 0
c gate 388 -386 387 0
-386 -388 0
387 -388 0
386 -387 388 0
c gate 389 -385 -388 0
-385 -389 0
-388 -389 0
385 388 389 0
c gate 390 -11 -389 0
-11 -390 0
-389 -390 0
11 389 390 0
c gate 391 -1 -37 0
-1 -391 0
-37 -391 0
1 37 391 0
c gate 392 -38 -391 0
-38 -392 0
-391 -392 0
38 391 392 0
c gate 393 -8 -385 0
-8 -393 0
-385 -393 0
8 385 393 0
c gate 394 -392 393 0
-392 -394 0
393 -394 0
392 -393 394 0
c gate 395 390 -394 0
390 -395 0
-394 -395 0
-390 394 395 0
c gate 396 -324 -395 0
-324 -396 0
-395 -396 0
324 395 396 0
c gate 397 -55 396 0
-55 -397 0
396 -397 0
55 -396 397 0
c gate 398 55 -396 0
55 -398 0
-396 -398 0
-55 396 398 0
c gate 399 -397 -398 0
-397 -399 0
-398 -399 0
397 398 399 0
c gate 400 8 97 0
8 -400 0
97 -400 0
-8 -97 400 0
c gate 401 3 -10 0
3 -401 0
-10 -401 0
-3 10 401 0
c gate 402 -381 -401 0
-381 -402 0
-401 -402 0
381 401 402 0
c gate 403 -400 402 0
-400 -403 0
402 -403 0
400 -402 403 0
c gate 404 2 -403 0
2 -404 0
-403 -404 0
-2 403 404 0
c gate 405 -2 402 0
-2 -405 0
402 -405 0
2 -402 405 0
c gate 406 -404 -405 0
-404 -406 0
-405 -406 0
404 405 406 0
c gate 407 -3 -395 0
-3 -407 0
-395 -407 0
3 395 407 0
c gate 408 406 407 0
406 -408 0
407 -408 0
-406 -407 408 0
c gate 409 399 408 0
399 -409 0
408 -409 0
-399 -408 409 0
c gate 410 -383 -409 0
-383 -410 0
-409 -410 0
383 409 410 0
c gate 411 9 -410 0
9 -411 0
-410 -411 0
-9 410 411 0
c gate 412 3 -395 0
3 -412 0
-395 -412 0
-3 395 412 0
c gate 413 9 -403 0
9 -413 0
-403 -413 0
-9 403 413 0
c gate 414 -412 413 0
-412 -414 0
413 -414 0
412 -413 414 0
c gate 415 11 289 0
11 -415 0
289 -415 0
-11 -289 415 0
c gate 416 407 -415 0
407 -416 0
-415 -416 0
-407 415 416 0
c gate 417 3 387 0
3 -417 0
387 -417 0
-3 -387 417 0
c gate 418 -3 -9 0
-3 -418 0
-9 -418 0
3 9 418 0
c gate 419 -111 -418 0
-111 -419 0
-418 -419 0
111 418 419 0
c gate 420 403 -419 0
403 -420 0
-419 -420 0
-403 419 420 0
c gate 421 -417 -420 0
-417 -421 0
-420 -421 0
417 420 421 0
c gate 422 -416 421 0
-416 -422 0
421 -422 0
416 -421 422 0
c gate 423 -414 422 0
-414 -423 0
422 -423 0
414 -422 423 0
c gate 424 -406 418 0
-406 -424 0
418 -424 0
406 -418 424 0
c gate 425 399 424 0
399 -425 0
424 -425 0
-399 -424 425 0
c gate 426 -423 -425 0
-423 -426 0
-425 -426 0
423 425 426 0
c gate 427 -411 426 0
-411 -427 0
426 -427 0
411 -426 427 0
c gate 428 -11 389 0
-11 -428 0
389 -428 0
11 -389 428 0
c gate 429 405 428 0
405 -429 0
428 -429 0
-405 -428 429 0
c gate 430 -3 -324 0
-3 -430 0
-324 -430 0
3 324 430 0
c gate 431 -404 430 0
-404 -431 0
430 -431 0
404 -430 431 0
c gate 432 -429 431 0
-429 -432 0
431 -432 0
429 -431 432 0
c gate 433 -390 401 0
-390 -433 0
401 -433 0
390 -401 433 0
c gate 434 53 -430 0
53 -434 0
-430 -434 0
-53 430 434 0
c gate 435 403 434 0
403 -435 0
434 -435 0
-403 -434 435 0
c gate 436 -433 -435 0
-433 -436 0
-435 -436 0
433 435 436 0
c gate 437 -432 436 0
-432 -437 0
436 -437 0
432 -436 437 0
c gate 438 9 -437 0
9 -438 0
-437 -438 0
-9 437 438 0
c gate 439 -324 -390 0
-324 -439 0
-390 -439 0
324 390 439 0
c gate 440 -55 439 0
-55 -440 0
439 -440 0
55 -439 440 0
c gate 441 55 -439 0
55 -441 0
-439 -441 0
-55 439 441 0
c gate 442 -406 -441 0
-406 -442 0
-441 -442 0
406 441 442 0
c gate 443 -440 442 0
-440 -443 0
442 -443 0
440 -442 443 0
c gate 444 -324 -403 0
-324 -444 0
-403 -444 0
324 403 444 0
c gate 445 -428 444 0
-428 -445 0
444 -445 0
428 -444 445 0
c gate 446 -3 -445 0
-3 -446 0
-445 -446 0
3 445 446 0
c gate 447 -443 446 0
-443 -447 0
446 -447 0
443 -446 447 0
c gate 448 -9 -401 0
-9 -448 0
-401 -448 0
9 401 448 0
c gate 449 -447 448 0
-447 -449 0
448 -449 0
447 -448 449 0
c gate 450 -438 -449 0
-438 -450 0
-449 -450 0
438 449 450 0
c gate 451 -427 -450 0
-427 -451 0
-450 -451 0
427 450 451 0
c gate 452 427 450 0
427 -452 0
450 -452 0
-427 -450 452 0
c gate 453 -451 -452 0
-451 -453 0
-452 -453 0
451 452 453 0
c gate 454 -376 -453 0
-376 -454 0
-453 -454 0
376 453 454 0
c gate 455 -375 454 0
-375 -455 0
454 -455 0
375 -454 455 0
c gate 456 -374 455 0
-374 -456 0
455 -456 0
374 -455 456 0
c gate 457 -279 456 0
-279 -457 0
456 -457 0
279 -456 457 0
c gate 458 -278 457 0
-278 -458 0
457 -458 0
278 -457 458 0
c gate 459 -277 458 0
-277 -459 0
458 -459 0
277 -458 459 0
c gate 460 -276 459 0
-276 -460 0
459 -460 0
276 -459 460 0
c PO
-460 0
